n = 20;
lu = [|-268, 152
      |-17, 108
      |-227, 234
      |10, 247
      |-211, 4
      |-398, -103
      |-345, 68
      |-214, 235
      |-367, -214
      |191, 399
      |93, 300
      |-373, -137
      |-308, -2
      |-105, 362
      |-276, 254
      |-300, 343
      |-38, 42
      |-126, -12
      |-371, -251
      |-212, 293|];
